n_nodes = 774;
M = 6701;
n_domains = 18;
domain_link_weights = [|0,6701,6701,358,6701,6701,6701,6701,6701,6701,6701,6701,6701,6701,6701,6701,6701,6701|6701,0,6701,6701,6701,479,344,264,6701,6701,6701,6701,6701,6701,6701,6701,6701,6701|6701,6701,0,6701,6701,6701,6701,6701,6701,972,6701,6701,6701,6701,1788,6701,6701,6701|6701,6701,6701,0,6701,6701,6701,6701,6701,6701,6701,6701,6701,6701,6701,6701,6701,6701|6701,6701,6701,6701,0,364,358,173,6701,6701,6701,6701,6701,6701,6701,6701,6701,6223|6701,6701,6701,6701,6701,0,6701,6701,6701,6701,6701,6701,6701,6701,6701,6701,6701,6701|6701,6701,6701,6701,6701,6701,0,6701,5585,6701,6701,6701,6701,6701,6701,6701,6701,6701|6701,6701,6701,6701,6701,6701,6701,0,6701,6701,6701,6701,6701,6701,6701,6701,6701,6701|6701,6701,6701,6701,6701,6701,6701,6701,0,6701,6701,6701,6701,6701,6701,1148,556,350|6701,6701,6701,6701,6701,6701,6701,6701,6701,0,6701,6701,6701,2562,6701,943,6701,852|6701,6701,6701,6701,6701,6701,6701,6701,6701,6701,0,1141,6701,6701,6701,2795,6701,6701|6701,6701,6701,6701,6701,6701,6701,6701,6701,6701,6701,0,492,6701,6701,2963,6701,3855|6701,6701,6701,6701,6701,6701,6701,6701,6701,6701,6701,6701,0,575,1995,2807,6701,6701|6701,6701,6701,6701,6701,6701,6701,6701,6701,6701,6701,6701,6701,0,1425,6701,6701,6701|6701,6701,6701,6701,6701,6701,6701,6701,6701,6701,6701,6701,6701,6701,0,1291,6701,1872|6701,6701,6701,6701,6701,6701,6701,6701,6701,6701,6701,6701,6701,6701,6701,0,704,916|6701,6701,6701,6701,6701,6701,6701,6701,6701,6701,6701,6701,6701,6701,6701,6701,0,6701|6701,6701,6701,6701,6701,6701,6701,6701,6701,6701,6701,6701,6701,6701,6701,6701,6701,0|];
num_node_links = 1543;
node_links = [|1,3|1,4|2,6|2,7|2,8|3,10|3,15|5,6|5,7|5,8|5,18|7,9|9,16|9,17|9,18|10,14|10,16|10,18|11,12|11,16|12,13|12,16|12,18|13,14|13,15|13,16|14,15|15,16|15,18|16,17|16,18|1,19|19,1|1,41|41,1|1,49|49,1|1,87|87,1|1,94|94,1|1,101|101,1|1,128|128,1|1,161|161,1|1,163|163,1|1,167|167,1|1,181|181,1|1,196|196,1|1,198|198,1|1,245|245,1|1,264|264,1|1,288|288,1|1,292|292,1|1,333|333,1|1,339|339,1|1,379|379,1|1,382|382,1|1,454|454,1|1,466|466,1|1,473|473,1|1,484|484,1|1,509|509,1|1,543|543,1|1,555|555,1|1,557|557,1|1,571|571,1|1,572|572,1|1,595|595,1|1,599|599,1|1,608|608,1|1,614|614,1|1,620|620,1|1,634|634,1|1,639|639,1|1,723|723,1|1,728|728,1|1,751|751,1|1,772|772,1|2,20|20,2|2,59|59,2|2,65|65,2|2,67|67,2|2,105|105,2|2,111|111,2|2,114|114,2|2,118|118,2|2,134|134,2|2,155|155,2|2,175|175,2|2,180|180,2|2,182|182,2|2,183|183,2|2,207|207,2|2,225|225,2|2,230|230,2|2,236|236,2|2,244|244,2|2,253|253,2|2,263|263,2|2,287|287,2|2,294|294,2|2,321|321,2|2,348|348,2|2,349|349,2|2,388|388,2|2,391|391,2|2,393|393,2|2,465|465,2|2,487|487,2|2,541|541,2|2,542|542,2|2,548|548,2|2,552|552,2|2,564|564,2|2,584|584,2|2,623|623,2|2,642|642,2|2,757|757,2|2,758|758,2|2,768|768,2|3,21|21,3|3,56|56,3|3,62|62,3|3,98|98,3|3,106|106,3|3,107|107,3|3,121|121,3|3,126|126,3|3,139|139,3|3,184|184,3|3,189|189,3|3,192|192,3|3,193|193,3|3,200|200,3|3,201|201,3|3,232|232,3|3,247|247,3|3,345|345,3|3,365|365,3|3,370|370,3|3,386|386,3|3,405|405,3|3,412|412,3|3,501|501,3|3,515|515,3|3,565|565,3|3,569|569,3|3,583|583,3|3,596|596,3|3,601|601,3|3,626|626,3|3,627|627,3|3,628|628,3|3,654|654,3|3,664|664,3|3,714|714,3|3,725|725,3|3,727|727,3|3,730|730,3|3,744|744,3|3,748|748,3|3,773|773,3|4,22|22,4|4,81|81,4|4,97|97,4|4,129|129,4|4,130|130,4|4,135|135,4|4,145|145,4|4,146|146,4|4,158|158,4|4,211|211,4|4,220|220,4|4,265|265,4|4,270|270,4|4,278|278,4|4,306|306,4|4,342|342,4|4,346|346,4|4,352|352,4|4,372|372,4|4,377|377,4|4,403|403,4|4,414|414,4|4,415|415,4|4,453|453,4|4,455|455,4|4,498|498,4|4,506|506,4|4,513|513,4|4,518|518,4|4,578|578,4|4,579|579,4|4,606|606,4|4,625|625,4|4,640|640,4|4,643|643,4|4,644|644,4|4,648|648,4|4,656|656,4|4,699|699,4|4,708|708,4|4,746|746,4|4,762|762,4|5,23|23,5|5,42|42,5|5,51|51,5|5,77|77,5|5,88|88,5|5,92|92,5|5,131|131,5|5,151|151,5|5,154|154,5|5,188|188,5|5,204|204,5|5,219|219,5|5,221|221,5|5,234|234,5|5,281|281,5|5,284|284,5|5,289|289,5|5,310|310,5|5,312|312,5|5,327|327,5|5,356|356,5|5,385|385,5|5,389|389,5|5,406|406,5|5,408|408,5|5,430|430,5|5,442|442,5|5,496|496,5|5,502|502,5|5,529|529,5|5,544|544,5|5,554|554,5|5,580|580,5|5,651|651,5|5,665|665,5|5,669|669,5|5,670|670,5|5,673|673,5|5,680|680,5|5,695|695,5|5,711|711,5|5,712|712,5|6,24|24,6|6,45|45,6|6,80|80,6|6,84|84,6|6,108|108,6|6,115|115,6|6,116|116,6|6,127|127,6|6,152|152,6|6,174|174,6|6,195|195,6|6,226|226,6|6,240|240,6|6,275|275,6|6,291|291,6|6,311|311,6|6,332|332,6|6,334|334,6|6,366|366,6|6,369|369,6|6,378|378,6|6,384|384,6|6,398|398,6|6,407|407,6|6,424|424,6|6,436|436,6|6,451|451,6|6,468|468,6|6,510|510,6|6,519|519,6|6,527|527,6|6,592|592,6|6,615|615,6|6,617|617,6|6,621|621,6|6,693|693,6|6,705|705,6|6,710|710,6|6,716|716,6|6,735|735,6|6,753|753,6|6,771|771,6|7,25|25,7|7,150|150,7|7,156|156,7|7,160|160,7|7,166|166,7|7,185|185,7|7,187|187,7|7,203|203,7|7,231|231,7|7,285|285,7|7,298|298,7|7,303|303,7|7,314|314,7|7,318|318,7|7,335|335,7|7,344|344,7|7,351|351,7|7,354|354,7|7,368|368,7|7,387|387,7|7,401|401,7|7,404|404,7|7,418|418,7|7,437|437,7|7,450|450,7|7,457|457,7|7,492|492,7|7,507|507,7|7,535|535,7|7,549|549,7|7,553|553,7|7,570|570,7|7,607|607,7|7,647|647,7|7,653|653,7|7,655|655,7|7,657|657,7|7,676|676,7|7,743|743,7|7,747|747,7|7,770|770,7|7,774|774,7|8,26|26,8|8,47|47,8|8,66|66,8|8,75|75,8|8,85|85,8|8,95|95,8|8,102|102,8|8,122|122,8|8,138|138,8|8,143|143,8|8,144|144,8|8,148|148,8|8,173|173,8|8,194|194,8|8,212|212,8|8,237|237,8|8,360|360,8|8,397|397,8|8,399|399,8|8,422|422,8|8,433|433,8|8,443|443,8|8,452|452,8|8,461|461,8|8,462|462,8|8,474|474,8|8,476|476,8|8,480|480,8|8,481|481,8|8,491|491,8|8,520|520,8|8,528|528,8|8,574|574,8|8,582|582,8|8,588|588,8|8,591|591,8|8,687|687,8|8,696|696,8|8,707|707,8|8,719|719,8|8,756|756,8|8,764|764,8|9,27|27,9|9,53|53,9|9,64|64,9|9,79|79,9|9,93|93,9|9,96|96,9|9,120|120,9|9,170|170,9|9,208|208,9|9,233|233,9|9,242|242,9|9,250|250,9|9,255|255,9|9,282|282,9|9,293|293,9|9,309|309,9|9,338|338,9|9,358|358,9|9,367|367,9|9,392|392,9|9,402|402,9|9,423|423,9|9,448|448,9|9,470|470,9|9,503|503,9|9,533|533,9|9,539|539,9|9,567|567,9|9,573|573,9|9,604|604,9|9,605|605,9|9,611|611,9|9,613|613,9|9,645|645,9|9,650|650,9|9,660|660,9|9,666|666,9|9,675|675,9|9,701|701,9|9,709|709,9|9,732|732,9|9,740|740,9|10,28|28,10|10,46|46,10|10,61|61,10|10,68|68,10|10,72|72,10|10,73|73,10|10,103|103,10|10,110|110,10|10,113|113,10|10,132|132,10|10,142|142,10|10,164|164,10|10,209|209,10|10,213|213,10|10,254|254,10|10,283|283,10|10,301|301,10|10,323|323,10|10,341|341,10|10,400|400,10|10,434|434,10|10,441|441,10|10,444|444,10|10,445|445,10|10,525|525,10|10,526|526,10|10,558|558,10|10,559|559,10|10,562|562,10|10,568|568,10|10,589|589,10|10,630|630,10|10,658|658,10|10,659|659,10|10,667|667,10|10,677|677,10|10,683|683,10|10,690|690,10|10,704|704,10|10,722|722,10|10,736|736,10|10,766|766,10|11,29|29,11|11,43|43,11|11,86|86,11|11,104|104,11|11,141|141,11|11,147|147,11|11,159|159,11|11,176|176,11|11,178|178,11|11,197|197,11|11,199|199,11|11,223|223,11|11,239|239,11|11,241|241,11|11,267|267,11|11,300|300,11|11,308|308,11|11,336|336,11|11,375|375,11|11,395|395,11|11,413|413,11|11,419|419,11|11,440|440,11|11,471|471,11|11,511|511,11|11,530|530,11|11,545|545,11|11,551|551,11|11,563|563,11|11,577|577,11|11,610|610,11|11,629|629,11|11,638|638,11|11,661|661,11|11,662|662,11|11,684|684,11|11,686|686,11|11,688|688,11|11,697|697,11|11,700|700,11|11,729|729,11|11,738|738,11|12,30|30,12|12,40|40,12|12,57|57,12|12,71|71,12|12,112|112,12|12,123|123,12|12,179|179,12|12,190|190,12|12,202|202,12|12,206|206,12|12,260|260,12|12,276|276,12|12,295|295,12|12,296|296,12|12,313|313,12|12,316|316,12|12,325|325,12|12,364|364,12|12,390|390,12|12,425|425,12|12,432|432,12|12,446|446,12|12,456|456,12|12,459|459,12|12,464|464,12|12,477|477,12|12,479|479,12|12,493|493,12|12,512|512,12|12,522|522,12|12,524|524,12|12,556|556,12|12,575|575,12|12,587|587,12|12,597|597,12|12,674|674,12|12,682|682,12|12,691|691,12|12,694|694,12|12,750|750,12|12,754|754,12|12,765|765,12|13,31|31,13|13,37|37,13|13,39|39,13|13,50|50,13|13,52|52,13|13,89|89,13|13,90|90,13|13,91|91,13|13,133|133,13|13,149|149,13|13,171|171,13|13,256|256,13|13,259|259,13|13,268|268,13|13,272|272,13|13,273|273,13|13,274|274,13|13,322|322,13|13,340|340,13|13,350|350,13|13,357|357,13|13,373|373,13|13,417|417,13|13,421|421,13|13,439|439,13|13,458|458,13|13,463|463,13|13,469|469,13|13,475|475,13|13,497|497,13|13,505|505,13|13,531|531,13|13,532|532,13|13,547|547,13|13,581|581,13|13,636|636,13|13,652|652,13|13,663|663,13|13,681|681,13|13,717|717,13|13,720|720,13|13,745|745,13|14,32|32,14|14,54|54,14|14,69|69,14|14,100|100,14|14,125|125,14|14,153|153,14|14,191|191,14|14,215|215,14|14,217|217,14|14,218|218,14|14,222|222,14|14,228|228,14|14,229|229,14|14,249|249,14|14,252|252,14|14,271|271,14|14,290|290,14|14,328|328,14|14,331|331,14|14,343|343,14|14,359|359,14|14,380|380,14|14,383|383,14|14,409|409,14|14,438|438,14|14,482|482,14|14,483|483,14|14,490|490,14|14,499|499,14|14,508|508,14|14,517|517,14|14,534|534,14|14,540|540,14|14,576|576,14|14,612|612,14|14,632|632,14|14,646|646,14|14,689|689,14|14,692|692,14|14,702|702,14|14,706|706,14|14,769|769,14|15,33|33,15|15,38|38,15|15,44|44,15|15,58|58,15|15,70|70,15|15,119|119,15|15,140|140,15|15,186|186,15|15,216|216,15|15,224|224,15|15,227|227,15|15,238|238,15|15,248|248,15|15,251|251,15|15,257|257,15|15,262|262,15|15,297|297,15|15,330|330,15|15,361|361,15|15,374|374,15|15,376|376,15|15,381|381,15|15,396|396,15|15,429|429,15|15,431|431,15|15,494|494,15|15,523|523,15|15,536|536,15|15,560|560,15|15,586|586,15|15,594|594,15|15,635|635,15|15,637|637,15|15,668|668,15|15,671|671,15|15,685|685,15|15,715|715,15|15,724|724,15|15,739|739,15|15,742|742,15|15,760|760,15|15,763|763,15|16,34|34,16|16,48|48,16|16,55|55,16|16,157|157,16|16,169|169,16|16,235|235,16|16,246|246,16|16,261|261,16|16,280|280,16|16,329|329,16|16,337|337,16|16,353|353,16|16,411|411,16|16,420|420,16|16,428|428,16|16,447|447,16|16,467|467,16|16,472|472,16|16,478|478,16|16,489|489,16|16,500|500,16|16,504|504,16|16,514|514,16|16,537|537,16|16,538|538,16|16,546|546,16|16,566|566,16|16,590|590,16|16,593|593,16|16,598|598,16|16,609|609,16|16,616|616,16|16,619|619,16|16,624|624,16|16,631|631,16|16,678|678,16|16,679|679,16|16,721|721,16|16,726|726,16|16,731|731,16|16,734|734,16|16,737|737,16|17,35|35,17|17,60|60,17|17,76|76,17|17,83|83,17|17,109|109,17|17,117|117,17|17,136|136,17|17,168|168,17|17,205|205,17|17,243|243,17|17,258|258,17|17,279|279,17|17,302|302,17|17,305|305,17|17,307|307,17|17,315|315,17|17,317|317,17|17,320|320,17|17,355|355,17|17,362|362,17|17,394|394,17|17,416|416,17|17,426|426,17|17,427|427,17|17,435|435,17|17,486|486,17|17,516|516,17|17,585|585,17|17,600|600,17|17,618|618,17|17,622|622,17|17,641|641,17|17,649|649,17|17,672|672,17|17,698|698,17|17,703|703,17|17,741|741,17|17,749|749,17|17,752|752,17|17,755|755,17|17,759|759,17|17,767|767,17|18,36|36,18|18,63|63,18|18,74|74,18|18,78|78,18|18,82|82,18|18,99|99,18|18,124|124,18|18,137|137,18|18,162|162,18|18,165|165,18|18,172|172,18|18,177|177,18|18,210|210,18|18,214|214,18|18,266|266,18|18,269|269,18|18,277|277,18|18,286|286,18|18,299|299,18|18,304|304,18|18,319|319,18|18,324|324,18|18,326|326,18|18,347|347,18|18,363|363,18|18,371|371,18|18,410|410,18|18,449|449,18|18,460|460,18|18,485|485,18|18,488|488,18|18,495|495,18|18,521|521,18|18,550|550,18|18,561|561,18|18,602|602,18|18,603|603,18|18,633|633,18|18,713|713,18|18,718|718,18|18,733|733,18|18,761|761,18|];
nodes = [|1,9,0,0,0,0,1,1|2,9,0,0,0,0,1,2|3,9,0,0,0,0,1,3|4,9,0,0,0,0,1,4|5,9,0,0,0,0,1,5|6,9,0,0,0,0,1,6|7,9,0,0,0,0,1,7|8,9,0,0,0,0,1,8|9,9,0,0,0,0,1,9|10,9,0,0,0,0,1,10|11,9,0,0,0,0,1,11|12,9,0,0,0,0,1,12|13,9,0,0,0,0,1,13|14,9,0,0,0,0,1,14|15,9,0,0,0,0,1,15|16,9,0,0,0,0,1,16|17,9,0,0,0,0,1,17|18,9,0,0,0,0,1,18|19,10,0,0,0,0,1,1|20,10,0,0,0,0,1,2|21,10,0,0,0,0,1,3|22,10,0,0,0,0,1,4|23,10,0,0,0,0,1,5|24,10,0,0,0,0,1,6|25,10,0,0,0,0,1,7|26,10,0,0,0,0,1,8|27,10,0,0,0,0,1,9|28,10,0,0,0,0,1,10|29,10,0,0,0,0,1,11|30,10,0,0,0,0,1,12|31,10,0,0,0,0,1,13|32,10,0,0,0,0,1,14|33,10,0,0,0,0,1,15|34,10,0,0,0,0,1,16|35,10,0,0,0,0,1,17|36,10,0,0,0,0,1,18|37,4,0,0,0,0,1,13|38,3,0,0,0,0,1,15|39,4,0,0,0,0,1,13|40,3,0,0,0,0,1,12|41,5,0,0,0,0,1,1|42,2,0,0,0,0,1,5|43,4,0,0,0,0,1,11|44,2,0,0,0,0,1,15|45,5,0,0,0,0,1,6|46,1,0,0,0,0,1,10|47,5,0,0,0,0,1,8|48,4,0,0,0,0,1,16|49,2,0,0,0,0,1,1|50,3,0,0,0,0,1,13|51,1,0,0,0,0,1,5|52,3,0,0,0,0,1,13|53,2,0,0,0,0,1,9|54,3,0,0,0,0,1,14|55,2,0,0,0,0,1,16|56,4,0,0,0,0,1,3|57,3,0,0,0,0,1,12|58,4,0,0,0,0,1,15|59,3,0,0,0,0,1,2|60,1,0,0,0,0,1,17|61,4,0,0,0,0,1,10|62,5,0,0,0,0,1,3|63,2,0,0,0,0,1,18|64,3,0,0,0,0,1,9|65,4,0,0,0,0,1,2|66,1,0,0,0,0,1,8|67,1,0,0,0,0,1,2|68,1,0,0,0,0,1,10|69,2,0,0,0,0,1,14|70,3,0,0,0,0,1,15|71,3,0,0,0,0,1,12|72,5,0,0,0,0,1,10|73,3,0,0,0,0,1,10|74,4,0,0,0,0,1,18|75,4,0,0,0,0,1,8|76,4,0,0,0,0,1,17|77,5,0,0,0,0,1,5|78,3,0,0,0,0,1,18|79,2,0,0,0,0,1,9|80,2,0,0,0,0,1,6|81,5,0,0,0,0,1,4|82,4,0,0,0,0,1,18|83,3,0,0,0,0,1,17|84,2,0,0,0,0,1,6|85,5,0,0,0,0,1,8|86,5,0,0,0,0,1,11|87,3,0,0,0,0,1,1|88,1,0,0,0,0,1,5|89,2,0,0,0,0,1,13|90,2,0,0,0,0,1,13|91,4,0,0,0,0,1,13|92,5,0,0,0,0,1,5|93,5,0,0,0,0,1,9|94,2,0,0,0,0,1,1|95,1,0,0,0,0,1,8|96,3,0,0,0,0,1,9|97,1,0,0,0,0,1,4|98,2,0,0,0,0,1,3|99,3,0,0,0,0,1,18|100,2,0,0,0,0,1,14|101,4,0,0,0,0,1,1|102,2,0,0,0,0,1,8|103,5,0,0,0,0,1,10|104,4,0,0,0,0,1,11|105,4,0,0,0,0,1,2|106,3,0,0,0,0,1,3|107,3,0,0,0,0,1,3|108,5,0,0,0,0,1,6|109,4,0,0,0,0,1,17|110,1,0,0,0,0,1,10|111,1,0,0,0,0,1,2|112,2,0,0,0,0,1,12|113,3,0,0,0,0,1,10|114,4,0,0,0,0,1,2|115,5,0,0,0,0,1,6|116,5,0,0,0,0,1,6|117,2,0,0,0,0,1,17|118,3,0,0,0,0,1,2|119,5,0,0,0,0,1,15|120,2,0,0,0,0,1,9|121,2,0,0,0,0,1,3|122,3,0,0,0,0,1,8|123,1,0,0,0,0,1,12|124,1,0,0,0,0,1,18|125,3,0,0,0,0,1,14|126,1,0,0,0,0,1,3|127,4,0,0,0,0,1,6|128,1,0,0,0,0,1,1|129,4,0,0,0,0,1,4|130,1,0,0,0,0,1,4|131,3,0,0,0,0,1,5|132,5,0,0,0,0,1,10|133,5,0,0,0,0,1,13|134,2,0,0,0,0,1,2|135,1,0,0,0,0,1,4|136,1,0,0,0,0,1,17|137,1,0,0,0,0,1,18|138,3,0,0,0,0,1,8|139,4,0,0,0,0,1,3|140,4,0,0,0,0,1,15|141,3,0,0,0,0,1,11|142,1,0,0,0,0,1,10|143,1,0,0,0,0,1,8|144,2,0,0,0,0,1,8|145,4,0,0,0,0,1,4|146,1,0,0,0,0,1,4|147,1,0,0,0,0,1,11|148,4,0,0,0,0,1,8|149,2,0,0,0,0,1,13|150,5,0,0,0,0,1,7|151,4,0,0,0,0,1,5|152,4,0,0,0,0,1,6|153,3,0,0,0,0,1,14|154,4,0,0,0,0,1,5|155,1,0,0,0,0,1,2|156,3,0,0,0,0,1,7|157,5,0,0,0,0,1,16|158,1,0,0,0,0,1,4|159,1,0,0,0,0,1,11|160,3,0,0,0,0,1,7|161,1,0,0,0,0,1,1|162,5,0,0,0,0,1,18|163,1,0,0,0,0,1,1|164,1,0,0,0,0,1,10|165,1,0,0,0,0,1,18|166,2,0,0,0,0,1,7|167,2,0,0,0,0,1,1|168,5,0,0,0,0,1,17|169,1,0,0,0,0,1,16|170,2,0,0,0,0,1,9|171,3,0,0,0,0,1,13|172,2,0,0,0,0,1,18|173,5,0,0,0,0,1,8|174,2,0,0,0,0,1,6|175,3,0,0,0,0,1,2|176,1,0,0,0,0,1,11|177,1,0,0,0,0,1,18|178,3,0,0,0,0,1,11|179,2,0,0,0,0,1,12|180,5,0,0,0,0,1,2|181,3,0,0,0,0,1,1|182,3,0,0,0,0,1,2|183,2,0,0,0,0,1,2|184,2,0,0,0,0,1,3|185,1,0,0,0,0,1,7|186,5,0,0,0,0,1,15|187,3,0,0,0,0,1,7|188,1,0,0,0,0,1,5|189,4,0,0,0,0,1,3|190,1,0,0,0,0,1,12|191,5,0,0,0,0,1,14|192,1,0,0,0,0,1,3|193,2,0,0,0,0,1,3|194,5,0,0,0,0,1,8|195,1,0,0,0,0,1,6|196,1,0,0,0,0,1,1|197,2,0,0,0,0,1,11|198,2,0,0,0,0,1,1|199,5,0,0,0,0,1,11|200,4,0,0,0,0,1,3|201,4,0,0,0,0,1,3|202,4,0,0,0,0,1,12|203,2,0,0,0,0,1,7|204,4,0,0,0,0,1,5|205,5,0,0,0,0,1,17|206,3,0,0,0,0,1,12|207,3,0,0,0,0,1,2|208,3,0,0,0,0,1,9|209,5,0,0,0,0,1,10|210,3,0,0,0,0,1,18|211,5,0,0,0,0,1,4|212,5,0,0,0,0,1,8|213,1,0,0,0,0,1,10|214,3,0,0,0,0,1,18|215,1,0,0,0,0,1,14|216,4,0,0,0,0,1,15|217,5,0,0,0,0,1,14|218,4,0,0,0,0,1,14|219,4,0,0,0,0,1,5|220,4,0,0,0,0,1,4|221,3,0,0,0,0,1,5|222,1,0,0,0,0,1,14|223,1,0,0,0,0,1,11|224,2,0,0,0,0,1,15|225,5,0,0,0,0,1,2|226,5,0,0,0,0,1,6|227,4,0,0,0,0,1,15|228,5,0,0,0,0,1,14|229,5,0,0,0,0,1,14|230,1,0,0,0,0,1,2|231,5,0,0,0,0,1,7|232,2,0,0,0,0,1,3|233,4,0,0,0,0,1,9|234,4,0,0,0,0,1,5|235,2,0,0,0,0,1,16|236,4,0,0,0,0,1,2|237,3,0,0,0,0,1,8|238,1,0,0,0,0,1,15|239,5,0,0,0,0,1,11|240,4,0,0,0,0,1,6|241,3,0,0,0,0,1,11|242,3,0,0,0,0,1,9|243,3,0,0,0,0,1,17|244,4,0,0,0,0,1,2|245,3,0,0,0,0,1,1|246,2,0,0,0,0,1,16|247,1,0,0,0,0,1,3|248,2,0,0,0,0,1,15|249,5,0,0,0,0,1,14|250,2,0,0,0,0,1,9|251,2,0,0,0,0,1,15|252,2,0,0,0,0,1,14|253,3,0,0,0,0,1,2|254,4,0,0,0,0,1,10|255,2,0,0,0,0,1,9|256,5,0,0,0,0,1,13|257,4,0,0,0,0,1,15|258,2,0,0,0,0,1,17|259,2,0,0,0,0,1,13|260,3,0,0,0,0,1,12|261,3,0,0,0,0,1,16|262,3,0,0,0,0,1,15|263,5,0,0,0,0,1,2|264,5,0,0,0,0,1,1|265,4,0,0,0,0,1,4|266,2,0,0,0,0,1,18|267,1,0,0,0,0,1,11|268,4,0,0,0,0,1,13|269,2,0,0,0,0,1,18|270,2,0,0,0,0,1,4|271,3,0,0,0,0,1,14|272,3,0,0,0,0,1,13|273,3,0,0,0,0,1,13|274,3,0,0,0,0,1,13|275,2,0,0,0,0,1,6|276,4,0,0,0,0,1,12|277,1,0,0,0,0,1,18|278,1,0,0,0,0,1,4|279,4,0,0,0,0,1,17|280,5,0,0,0,0,1,16|281,5,0,0,0,0,1,5|282,5,0,0,0,0,1,9|283,1,0,0,0,0,1,10|284,2,0,0,0,0,1,5|285,2,0,0,0,0,1,7|286,4,0,0,0,0,1,18|287,3,0,0,0,0,1,2|288,4,0,0,0,0,1,1|289,1,0,0,0,0,1,5|290,1,0,0,0,0,1,14|291,2,0,0,0,0,1,6|292,5,0,0,0,0,1,1|293,2,0,0,0,0,1,9|294,3,0,0,0,0,1,2|295,4,0,0,0,0,1,12|296,2,0,0,0,0,1,12|297,4,0,0,0,0,1,15|298,3,0,0,0,0,1,7|299,1,0,0,0,0,1,18|300,5,0,0,0,0,1,11|301,5,0,0,0,0,1,10|302,5,0,0,0,0,1,17|303,3,0,0,0,0,1,7|304,1,0,0,0,0,1,18|305,2,0,0,0,0,1,17|306,1,0,0,0,0,1,4|307,3,0,0,0,0,1,17|308,2,0,0,0,0,1,11|309,4,0,0,0,0,1,9|310,3,0,0,0,0,1,5|311,2,0,0,0,0,1,6|312,3,0,0,0,0,1,5|313,4,0,0,0,0,1,12|314,2,0,0,0,0,1,7|315,2,0,0,0,0,1,17|316,3,0,0,0,0,1,12|317,2,0,0,0,0,1,17|318,3,0,0,0,0,1,7|319,2,0,0,0,0,1,18|320,2,0,0,0,0,1,17|321,1,0,0,0,0,1,2|322,1,0,0,0,0,1,13|323,2,0,0,0,0,1,10|324,3,0,0,0,0,1,18|325,4,0,0,0,0,1,12|326,5,0,0,0,0,1,18|327,4,0,0,0,0,1,5|328,4,0,0,0,0,1,14|329,1,0,0,0,0,1,16|330,4,0,0,0,0,1,15|331,5,0,0,0,0,1,14|332,3,0,0,0,0,1,6|333,2,0,0,0,0,1,1|334,1,0,0,0,0,1,6|335,5,0,0,0,0,1,7|336,1,0,0,0,0,1,11|337,4,0,0,0,0,1,16|338,1,0,0,0,0,1,9|339,2,0,0,0,0,1,1|340,1,0,0,0,0,1,13|341,2,0,0,0,0,1,10|342,1,0,0,0,0,1,4|343,1,0,0,0,0,1,14|344,2,0,0,0,0,1,7|345,1,0,0,0,0,1,3|346,5,0,0,0,0,1,4|347,2,0,0,0,0,1,18|348,5,0,0,0,0,1,2|349,1,0,0,0,0,1,2|350,5,0,0,0,0,1,13|351,1,0,0,0,0,1,7|352,3,0,0,0,0,1,4|353,4,0,0,0,0,1,16|354,2,0,0,0,0,1,7|355,5,0,0,0,0,1,17|356,2,0,0,0,0,1,5|357,2,0,0,0,0,1,13|358,4,0,0,0,0,1,9|359,2,0,0,0,0,1,14|360,2,0,0,0,0,1,8|361,1,0,0,0,0,1,15|362,2,0,0,0,0,1,17|363,3,0,0,0,0,1,18|364,3,0,0,0,0,1,12|365,5,0,0,0,0,1,3|366,2,0,0,0,0,1,6|367,2,0,0,0,0,1,9|368,5,0,0,0,0,1,7|369,1,0,0,0,0,1,6|370,4,0,0,0,0,1,3|371,1,0,0,0,0,1,18|372,1,0,0,0,0,1,4|373,3,0,0,0,0,1,13|374,3,0,0,0,0,1,15|375,4,0,0,0,0,1,11|376,3,0,0,0,0,1,15|377,1,0,0,0,0,1,4|378,4,0,0,0,0,1,6|379,1,0,0,0,0,1,1|380,3,0,0,0,0,1,14|381,5,0,0,0,0,1,15|382,3,0,0,0,0,1,1|383,4,0,0,0,0,1,14|384,1,0,0,0,0,1,6|385,4,0,0,0,0,1,5|386,2,0,0,0,0,1,3|387,1,0,0,0,0,1,7|388,2,0,0,0,0,1,2|389,4,0,0,0,0,1,5|390,3,0,0,0,0,1,12|391,3,0,0,0,0,1,2|392,5,0,0,0,0,1,9|393,5,0,0,0,0,1,2|394,3,0,0,0,0,1,17|395,5,0,0,0,0,1,11|396,3,0,0,0,0,1,15|397,2,0,0,0,0,1,8|398,5,0,0,0,0,1,6|399,5,0,0,0,0,1,8|400,2,0,0,0,0,1,10|401,4,0,0,0,0,1,7|402,3,0,0,0,0,1,9|403,2,0,0,0,0,1,4|404,4,0,0,0,0,1,7|405,1,0,0,0,0,1,3|406,5,0,0,0,0,1,5|407,5,0,0,0,0,1,6|408,4,0,0,0,0,1,5|409,3,0,0,0,0,1,14|410,5,0,0,0,0,1,18|411,4,0,0,0,0,1,16|412,3,0,0,0,0,1,3|413,3,0,0,0,0,1,11|414,2,0,0,0,0,1,4|415,4,0,0,0,0,1,4|416,3,0,0,0,0,1,17|417,5,0,0,0,0,1,13|418,4,0,0,0,0,1,7|419,4,0,0,0,0,1,11|420,5,0,0,0,0,1,16|421,3,0,0,0,0,1,13|422,5,0,0,0,0,1,8|423,3,0,0,0,0,1,9|424,3,0,0,0,0,1,6|425,3,0,0,0,0,1,12|426,1,0,0,0,0,1,17|427,2,0,0,0,0,1,17|428,3,0,0,0,0,1,16|429,1,0,0,0,0,1,15|430,4,0,0,0,0,1,5|431,2,0,0,0,0,1,15|432,5,0,0,0,0,1,12|433,4,0,0,0,0,1,8|434,3,0,0,0,0,1,10|435,4,0,0,0,0,1,17|436,5,0,0,0,0,1,6|437,5,0,0,0,0,1,7|438,4,0,0,0,0,1,14|439,2,0,0,0,0,1,13|440,5,0,0,0,0,1,11|441,3,0,0,0,0,1,10|442,5,0,0,0,0,1,5|443,2,0,0,0,0,1,8|444,2,0,0,0,0,1,10|445,2,0,0,0,0,1,10|446,1,0,0,0,0,1,12|447,3,0,0,0,0,1,16|448,4,0,0,0,0,1,9|449,2,0,0,0,0,1,18|450,1,0,0,0,0,1,7|451,5,0,0,0,0,1,6|452,5,0,0,0,0,1,8|453,1,0,0,0,0,1,4|454,1,0,0,0,0,1,1|455,2,0,0,0,0,1,4|456,1,0,0,0,0,1,12|457,3,0,0,0,0,1,7|458,5,0,0,0,0,1,13|459,1,0,0,0,0,1,12|460,2,0,0,0,0,1,18|461,2,0,0,0,0,1,8|462,4,0,0,0,0,1,8|463,2,0,0,0,0,1,13|464,4,0,0,0,0,1,12|465,5,0,0,0,0,1,2|466,5,0,0,0,0,1,1|467,1,0,0,0,0,1,16|468,5,0,0,0,0,1,6|469,1,0,0,0,0,1,13|470,3,0,0,0,0,1,9|471,2,0,0,0,0,1,11|472,3,0,0,0,0,1,16|473,3,0,0,0,0,1,1|474,4,0,0,0,0,1,8|475,4,0,0,0,0,1,13|476,5,0,0,0,0,1,8|477,3,0,0,0,0,1,12|478,3,0,0,0,0,1,16|479,4,0,0,0,0,1,12|480,3,0,0,0,0,1,8|481,2,0,0,0,0,1,8|482,1,0,0,0,0,1,14|483,1,0,0,0,0,1,14|484,4,0,0,0,0,1,1|485,4,0,0,0,0,1,18|486,4,0,0,0,0,1,17|487,4,0,0,0,0,1,2|488,5,0,0,0,0,1,18|489,5,0,0,0,0,1,16|490,1,0,0,0,0,1,14|491,3,0,0,0,0,1,8|492,1,0,0,0,0,1,7|493,2,0,0,0,0,1,12|494,5,0,0,0,0,1,15|495,2,0,0,0,0,1,18|496,5,0,0,0,0,1,5|497,5,0,0,0,0,1,13|498,1,0,0,0,0,1,4|499,2,0,0,0,0,1,14|500,2,0,0,0,0,1,16|501,1,0,0,0,0,1,3|502,4,0,0,0,0,1,5|503,5,0,0,0,0,1,9|504,5,0,0,0,0,1,16|505,4,0,0,0,0,1,13|506,3,0,0,0,0,1,4|507,1,0,0,0,0,1,7|508,1,0,0,0,0,1,14|509,5,0,0,0,0,1,1|510,2,0,0,0,0,1,6|511,2,0,0,0,0,1,11|512,4,0,0,0,0,1,12|513,5,0,0,0,0,1,4|514,4,0,0,0,0,1,16|515,3,0,0,0,0,1,3|516,3,0,0,0,0,1,17|517,3,0,0,0,0,1,14|518,2,0,0,0,0,1,4|519,2,0,0,0,0,1,6|520,2,0,0,0,0,1,8|521,4,0,0,0,0,1,18|522,2,0,0,0,0,1,12|523,5,0,0,0,0,1,15|524,3,0,0,0,0,1,12|525,2,0,0,0,0,1,10|526,5,0,0,0,0,1,10|527,4,0,0,0,0,1,6|528,1,0,0,0,0,1,8|529,2,0,0,0,0,1,5|530,2,0,0,0,0,1,11|531,4,0,0,0,0,1,13|532,1,0,0,0,0,1,13|533,5,0,0,0,0,1,9|534,1,0,0,0,0,1,14|535,5,0,0,0,0,1,7|536,4,0,0,0,0,1,15|537,3,0,0,0,0,1,16|538,5,0,0,0,0,1,16|539,3,0,0,0,0,1,9|540,4,0,0,0,0,1,14|541,3,0,0,0,0,1,2|542,1,0,0,0,0,1,2|543,1,0,0,0,0,1,1|544,3,0,0,0,0,1,5|545,3,0,0,0,0,1,11|546,4,0,0,0,0,1,16|547,4,0,0,0,0,1,13|548,1,0,0,0,0,1,2|549,1,0,0,0,0,1,7|550,3,0,0,0,0,1,18|551,4,0,0,0,0,1,11|552,5,0,0,0,0,1,2|553,3,0,0,0,0,1,7|554,5,0,0,0,0,1,5|555,5,0,0,0,0,1,1|556,2,0,0,0,0,1,12|557,5,0,0,0,0,1,1|558,5,0,0,0,0,1,10|559,4,0,0,0,0,1,10|560,3,0,0,0,0,1,15|561,4,0,0,0,0,1,18|562,1,0,0,0,0,1,10|563,4,0,0,0,0,1,11|564,2,0,0,0,0,1,2|565,1,0,0,0,0,1,3|566,5,0,0,0,0,1,16|567,1,0,0,0,0,1,9|568,1,0,0,0,0,1,10|569,1,0,0,0,0,1,3|570,1,0,0,0,0,1,7|571,5,0,0,0,0,1,1|572,1,0,0,0,0,1,1|573,3,0,0,0,0,1,9|574,5,0,0,0,0,1,8|575,1,0,0,0,0,1,12|576,5,0,0,0,0,1,14|577,1,0,0,0,0,1,11|578,5,0,0,0,0,1,4|579,5,0,0,0,0,1,4|580,4,0,0,0,0,1,5|581,4,0,0,0,0,1,13|582,1,0,0,0,0,1,8|583,2,0,0,0,0,1,3|584,5,0,0,0,0,1,2|585,2,0,0,0,0,1,17|586,5,0,0,0,0,1,15|587,5,0,0,0,0,1,12|588,5,0,0,0,0,1,8|589,3,0,0,0,0,1,10|590,1,0,0,0,0,1,16|591,3,0,0,0,0,1,8|592,1,0,0,0,0,1,6|593,1,0,0,0,0,1,16|594,1,0,0,0,0,1,15|595,3,0,0,0,0,1,1|596,1,0,0,0,0,1,3|597,1,0,0,0,0,1,12|598,5,0,0,0,0,1,16|599,2,0,0,0,0,1,1|600,3,0,0,0,0,1,17|601,4,0,0,0,0,1,3|602,5,0,0,0,0,1,18|603,4,0,0,0,0,1,18|604,2,0,0,0,0,1,9|605,1,0,0,0,0,1,9|606,1,0,0,0,0,1,4|607,4,0,0,0,0,1,7|608,1,0,0,0,0,1,1|609,2,0,0,0,0,1,16|610,1,0,0,0,0,1,11|611,2,0,0,0,0,1,9|612,1,0,0,0,0,1,14|613,3,0,0,0,0,1,9|614,5,0,0,0,0,1,1|615,3,0,0,0,0,1,6|616,5,0,0,0,0,1,16|617,4,0,0,0,0,1,6|618,5,0,0,0,0,1,17|619,1,0,0,0,0,1,16|620,4,0,0,0,0,1,1|621,3,0,0,0,0,1,6|622,4,0,0,0,0,1,17|623,3,0,0,0,0,1,2|624,3,0,0,0,0,1,16|625,4,0,0,0,0,1,4|626,4,0,0,0,0,1,3|627,5,0,0,0,0,1,3|628,4,0,0,0,0,1,3|629,4,0,0,0,0,1,11|630,2,0,0,0,0,1,10|631,2,0,0,0,0,1,16|632,4,0,0,0,0,1,14|633,1,0,0,0,0,1,18|634,1,0,0,0,0,1,1|635,3,0,0,0,0,1,15|636,2,0,0,0,0,1,13|637,1,0,0,0,0,1,15|638,5,0,0,0,0,1,11|639,4,0,0,0,0,1,1|640,4,0,0,0,0,1,4|641,2,0,0,0,0,1,17|642,4,0,0,0,0,1,2|643,3,0,0,0,0,1,4|644,5,0,0,0,0,1,4|645,1,0,0,0,0,1,9|646,3,0,0,0,0,1,14|647,2,0,0,0,0,1,7|648,1,0,0,0,0,1,4|649,2,0,0,0,0,1,17|650,4,0,0,0,0,1,9|651,1,0,0,0,0,1,5|652,5,0,0,0,0,1,13|653,1,0,0,0,0,1,7|654,5,0,0,0,0,1,3|655,3,0,0,0,0,1,7|656,5,0,0,0,0,1,4|657,4,0,0,0,0,1,7|658,1,0,0,0,0,1,10|659,1,0,0,0,0,1,10|660,3,0,0,0,0,1,9|661,5,0,0,0,0,1,11|662,5,0,0,0,0,1,11|663,5,0,0,0,0,1,13|664,1,0,0,0,0,1,3|665,2,0,0,0,0,1,5|666,4,0,0,0,0,1,9|667,3,0,0,0,0,1,10|668,5,0,0,0,0,1,15|669,1,0,0,0,0,1,5|670,4,0,0,0,0,1,5|671,1,0,0,0,0,1,15|672,2,0,0,0,0,1,17|673,2,0,0,0,0,1,5|674,5,0,0,0,0,1,12|675,3,0,0,0,0,1,9|676,5,0,0,0,0,1,7|677,5,0,0,0,0,1,10|678,4,0,0,0,0,1,16|679,3,0,0,0,0,1,16|680,5,0,0,0,0,1,5|681,1,0,0,0,0,1,13|682,1,0,0,0,0,1,12|683,2,0,0,0,0,1,10|684,4,0,0,0,0,1,11|685,4,0,0,0,0,1,15|686,1,0,0,0,0,1,11|687,4,0,0,0,0,1,8|688,3,0,0,0,0,1,11|689,4,0,0,0,0,1,14|690,5,0,0,0,0,1,10|691,4,0,0,0,0,1,12|692,5,0,0,0,0,1,14|693,5,0,0,0,0,1,6|694,5,0,0,0,0,1,12|695,4,0,0,0,0,1,5|696,1,0,0,0,0,1,8|697,4,0,0,0,0,1,11|698,5,0,0,0,0,1,17|699,5,0,0,0,0,1,4|700,5,0,0,0,0,1,11|701,4,0,0,0,0,1,9|702,3,0,0,0,0,1,14|703,2,0,0,0,0,1,17|704,3,0,0,0,0,1,10|705,1,0,0,0,0,1,6|706,2,0,0,0,0,1,14|707,4,0,0,0,0,1,8|708,2,0,0,0,0,1,4|709,3,0,0,0,0,1,9|710,1,0,0,0,0,1,6|711,3,0,0,0,0,1,5|712,3,0,0,0,0,1,5|713,3,0,0,0,0,1,18|714,2,0,0,0,0,1,3|715,5,0,0,0,0,1,15|716,2,0,0,0,0,1,6|717,4,0,0,0,0,1,13|718,4,0,0,0,0,1,18|719,1,0,0,0,0,1,8|720,4,0,0,0,0,1,13|721,1,0,0,0,0,1,16|722,4,0,0,0,0,1,10|723,1,0,0,0,0,1,1|724,4,0,0,0,0,1,15|725,2,0,0,0,0,1,3|726,1,0,0,0,0,1,16|727,3,0,0,0,0,1,3|728,4,0,0,0,0,1,1|729,1,0,0,0,0,1,11|730,3,0,0,0,0,1,3|731,4,0,0,0,0,1,16|732,1,0,0,0,0,1,9|733,4,0,0,0,0,1,18|734,4,0,0,0,0,1,16|735,1,0,0,0,0,1,6|736,5,0,0,0,0,1,10|737,5,0,0,0,0,1,16|738,2,0,0,0,0,1,11|739,2,0,0,0,0,1,15|740,2,0,0,0,0,1,9|741,5,0,0,0,0,1,17|742,1,0,0,0,0,1,15|743,5,0,0,0,0,1,7|744,3,0,0,0,0,1,3|745,4,0,0,0,0,1,13|746,4,0,0,0,0,1,4|747,3,0,0,0,0,1,7|748,3,0,0,0,0,1,3|749,3,0,0,0,0,1,17|750,4,0,0,0,0,1,12|751,5,0,0,0,0,1,1|752,1,0,0,0,0,1,17|753,1,0,0,0,0,1,6|754,2,0,0,0,0,1,12|755,1,0,0,0,0,1,17|756,4,0,0,0,0,1,8|757,2,0,0,0,0,1,2|758,3,0,0,0,0,1,2|759,5,0,0,0,0,1,17|760,2,0,0,0,0,1,15|761,1,0,0,0,0,1,18|762,3,0,0,0,0,1,4|763,3,0,0,0,0,1,15|764,1,0,0,0,0,1,8|765,2,0,0,0,0,1,12|766,5,0,0,0,0,1,10|767,3,0,0,0,0,1,17|768,1,0,0,0,0,1,2|769,2,0,0,0,0,1,14|770,4,0,0,0,0,1,7|771,3,0,0,0,0,1,6|772,2,0,0,0,0,1,1|773,1,0,0,0,0,1,3|774,3,0,0,0,0,1,7|];
